db/data/133591143714003211031282021252199061991.z3.out
-------------------
2500.237400944
